NAME : Simple-CVRP-Example
COMMENT : Small CVRP instance for testing
TYPE : CVRP
DIMENSION : 6
EDGE_WEIGHT_TYPE : EUC_2D
CAPACITY : 15
NODE_COORD_SECTION
1 50 50
2 60 60
3 65 55
4 55 60
5 52 58
6 48 62
DEMAND_SECTION
1 0
2 5
3 10
4 6
5 4
6 5
DEPOT_SECTION
1
-1
EOF